SCIP version 5.0.0 [precision: 8 byte] [memory: block] [mode: optimized] [LP solver: NONE] [GitHash: 3bbd232]
Copyright (C) 2002-2017 Konrad-Zuse-Zentrum fuer Informationstechnik Berlin (ZIB)

External codes: 
  Readline EditLine w  GNU library for command line editing (gnu.org/s/readline)
  CppAD 20160000.1     Algorithmic Differentiation of C++ algorithms developed by B. Bell (www.coin-or.org/CppAD)
  ZLIB 1.2.5           General purpose compression library by J. Gailly and M. Adler (zlib.net)
  GMP 6.1.2            GNU Multiple Precision Arithmetic Library developed by T. Granlund (gmplib.org)

user parameter file <scip.set> not found - using default parameters

read problem <../../Split_data/output/statH/7/3_sample_statH.logreg>
============

File name	:	../../Split_data/output/statH/7/3_sample_statH.logreg
Problem name 	:	3_sample_statH
Number of data	:	216
Number of var	:	25
The given data has linear dependence
8 sets of column vector are linearly dependent:
{ 3 4}, { 5 6 7 8}, { 11 12}, { 14}, { 13 15}, { 17 18}, { 20 21 22}, { 24 25 26}, 

[dim=1] time: 0.007647
[dim=2] time: 0.01275
[dim=3] time: 0.018477
[dim=4] time: 0.023703
[dim=5] time: 0.030392
[dim=6] time: 0.03413
[dim=7] time: 0.037516
[dim=8] time: 0.040702
[dim=9] time: 0.043288
[dim=10] time: 0.046178
[dim=11] time: 0.04861
[dim=12] Time of forward = 0.050617sec.
AIC: 146.167
k: 11

[dim=17] time: 0.00475
[dim=16] time: 0.008085
[dim=15] time: 0.013129
[dim=14] time: 0.016129
[dim=13] time: 0.018907
[dim=12] time: 0.020925
[dim=11] time: 0.023713
[dim=10] Time of backward = 0.026196sec.
AIC: 145.779
k: 11
